10	5
0	5	2	5	1	3	4
1	1	8
2	2	6	8
3	1	7
4	1	9
5	2	7	10
6	1	10
7	1	11
8	1	11
9	1	11
10	1	11
11	0
0	0	0	0	0	0	0
1	5	0	0	0	2	4
2	10	4	2	0	4	5
3	6	0	0	2	0	0
4	3	0	0	1	3	0
5	5	1	1	0	0	3
6	8	2	4	0	0	4
7	1	5	5	0	2	0
8	10	0	3	0	0	0
9	2	0	0	0	1	4
10	7	5	3	3	3	0
11	0	0	0	0	0	0
4	3	3	6	7
